46380
0 1 1 0 1 0 0 1 0 1 0 0 1 1 0 1 1 0 0 1 0 1 0 0 0 1 0 0 0 0 
21 9 21 7 15 4 15 19 16 12 4 12 21 1 12 2 1 19 2 16 19 16 21 2 13 7 16 25 4 2 19 13 19 16 12 4 2 1 7 21 19 2 12 4 19 4 13 2 4 4 21 16 16 16 13 19 7 9 7 19 9 16 7 4 1 12 1 19 19 12 7 12 4 4 21 13 1 9 1 16 13 1 13 25 19 2 19 21 16 12 12 4 7 7 2 1 19 21 9 21 4 16 12 25 12 21 4 16 7 2 19 4 25 7 19 9 19 19 2 1 13 12 4 13 9 16 1 7 13 9 7 2 7 9 1 13 13 19 12 2 19 12 25 7 7 2 16 1 2 12 21 2 13 16 13 12 21 16 13 13 19 2 21 25 21 2 21 7 1 21 21 9 9 13 4 16 2 9 4 13 13 2 16 4 7 13 12 1 21 16 21 1 12 4 7 25 12 9 1 4 
